p edge 100 1980
e 1 5
e 1 6
e 1 8
e 1 9
e 1 10
e 1 14
e 1 15
e 1 18
e 1 26
e 1 28
e 1 29
e 1 31
e 1 33
e 1 38
e 1 39
e 1 41
e 1 42
e 1 43
e 1 46
e 1 50
e 1 53
e 1 55
e 1 57
e 1 60
e 1 62
e 1 64
e 1 66
e 1 67
e 1 73
e 1 75
e 1 76
e 1 77
e 1 82
e 1 83
e 1 86
e 1 88
e 1 89
e 1 90
e 1 91
e 1 96
e 1 97
e 1 98
e 1 99
e 2 4
e 2 5
e 2 7
e 2 9
e 2 10
e 2 12
e 2 15
e 2 17
e 2 19
e 2 20
e 2 21
e 2 22
e 2 23
e 2 24
e 2 32
e 2 36
e 2 37
e 2 40
e 2 43
e 2 45
e 2 48
e 2 49
e 2 51
e 2 53
e 2 54
e 2 56
e 2 58
e 2 60
e 2 61
e 2 67
e 2 68
e 2 71
e 2 76
e 2 80
e 2 81
e 2 82
e 2 84
e 2 89
e 2 90
e 2 91
e 2 97
e 2 98
e 2 99
e 2 100
e 3 4
e 3 8
e 3 9
e 3 13
e 3 15
e 3 17
e 3 21
e 3 23
e 3 25
e 3 26
e 3 32
e 3 35
e 3 36
e 3 38
e 3 44
e 3 48
e 3 50
e 3 51
e 3 56
e 3 57
e 3 59
e 3 61
e 3 63
e 3 66
e 3 69
e 3 72
e 3 76
e 3 80
e 3 83
e 3 85
e 3 91
e 3 93
e 3 94
e 4 5
e 4 6
e 4 8
e 4 9
e 4 11
e 4 14
e 4 18
e 4 20
e 4 21
e 4 23
e 4 25
e 4 26
e 4 29
e 4 30
e 4 32
e 4 33
e 4 34
e 4 35
e 4 36
e 4 43
e 4 44
e 4 45
e 4 48
e 4 49
e 4 50
e 4 53
e 4 55
e 4 57
e 4 61
e 4 63
e 4 66
e 4 69
e 4 70
e 4 72
e 4 76
e 4 77
e 4 78
e 4 87
e 4 89
e 4 92
e 4 94
e 4 95
e 4 96
e 4 98
e 4 100
e 5 9
e 5 14
e 5 25
e 5 26
e 5 37
e 5 38
e 5 39
e 5 41
e 5 44
e 5 47
e 5 48
e 5 54
e 5 58
e 5 60
e 5 62
e 5 63
e 5 65
e 5 66
e 5 69
e 5 73
e 5 74
e 5 76
e 5 77
e 5 78
e 5 81
e 5 82
e 5 86
e 5 88
e 5 90
e 5 93
e 5 94
e 5 95
e 5 99
e 6 7
e 6 8
e 6 9
e 6 10
e 6 11
e 6 13
e 6 14
e 6 16
e 6 17
e 6 19
e 6 21
e 6 23
e 6 24
e 6 27
e 6 29
e 6 38
e 6 39
e 6 40
e 6 43
e 6 44
e 6 46
e 6 47
e 6 49
e 6 51
e 6 53
e 6 54
e 6 59
e 6 64
e 6 65
e 6 68
e 6 73
e 6 74
e 6 77
e 6 79
e 6 80
e 6 82
e 6 83
e 6 86
e 6 88
e 6 89
e 6 93
e 6 95
e 6 98
e 7 9
e 7 10
e 7 12
e 7 17
e 7 27
e 7 30
e 7 31
e 7 33
e 7 34
e 7 35
e 7 42
e 7 44
e 7 47
e 7 50
e 7 52
e 7 54
e 7 62
e 7 66
e 7 69
e 7 71
e 7 73
e 7 74
e 7 83
e 7 85
e 7 87
e 7 88
e 7 89
e 7 90
e 7 93
e 7 94
e 7 95
e 7 99
e 8 12
e 8 14
e 8 21
e 8 28
e 8 30
e 8 33
e 8 34
e 8 37
e 8 39
e 8 41
e 8 42
e 8 44
e 8 48
e 8 50
e 8 51
e 8 52
e 8 55
e 8 57
e 8 59
e 8 62
e 8 63
e 8 64
e 8 65
e 8 68
e 8 73
e 8 74
e 8 75
e 8 83
e 8 84
e 8 86
e 8 87
e 8 91
e 8 92
e 8 95
e 8 97
e 8 100
e 9 11
e 9 12
e 9 15
e 9 17
e 9 18
e 9 21
e 9 25
e 9 31
e 9 33
e 9 34
e 9 37
e 9 38
e 9 39
e 9 40
e 9 41
e 9 43
e 9 45
e 9 46
e 9 47
e 9 48
e 9 50
e 9 51
e 9 55
e 9 60
e 9 61
e 9 62
e 9 64
e 9 66
e 9 75
e 9 76
e 9 77
e 9 79
e 9 80
e 9 81
e 9 85
e 9 88
e 9 89
e 9 92
e 9 96
e 9 99
e 10 11
e 10 12
e 10 13
e 10 16
e 10 17
e 10 19
e 10 20
e 10 21
e 10 27
e 10 29
e 10 30
e 10 36
e 10 42
e 10 44
e 10 52
e 10 53
e 10 54
e 10 55
e 10 56
e 10 58
e 10 59
e 10 61
e 10 63
e 10 67
e 10 69
e 10 71
e 10 75
e 10 76
e 10 77
e 10 79
e 10 84
e 10 87
e 10 90
e 10 91
e 10 96
e 10 98
e 10 100
e 11 12
e 11 21
e 11 23
e 11 24
e 11 27
e 11 29
e 11 35
e 11 39
e 11 40
e 11 43
e 11 44
e 11 46
e 11 47
e 11 48
e 11 50
e 11 52
e 11 56
e 11 57
e 11 58
e 11 63
e 11 64
e 11 65
e 11 69
e 11 70
e 11 72
e 11 75
e 11 79
e 11 81
e 11 84
e 11 89
e 11 99
e 12 20
e 12 22
e 12 23
e 12 26
e 12 27
e 12 28
e 12 29
e 12 30
e 12 31
e 12 32
e 12 33
e 12 34
e 12 37
e 12 40
e 12 42
e 12 44
e 12 54
e 12 55
e 12 59
e 12 61
e 12 62
e 12 64
e 12 70
e 12 71
e 12 72
e 12 78
e 12 80
e 12 82
e 12 85
e 12 89
e 12 92
e 12 93
e 12 100
e 13 18
e 13 21
e 13 22
e 13 25
e 13 26
e 13 27
e 13 31
e 13 33
e 13 35
e 13 36
e 13 37
e 13 39
e 13 40
e 13 41
e 13 42
e 13 43
e 13 44
e 13 47
e 13 48
e 13 49
e 13 50
e 13 52
e 13 57
e 13 58
e 13 59
e 13 60
e 13 62
e 13 63
e 13 64
e 13 67
e 13 69
e 13 71
e 13 73
e 13 80
e 13 86
e 13 88
e 13 91
e 13 99
e 13 100
e 14 17
e 14 18
e 14 21
e 14 27
e 14 28
e 14 30
e 14 35
e 14 38
e 14 39
e 14 41
e 14 42
e 14 45
e 14 46
e 14 48
e 14 57
e 14 59
e 14 62
e 14 63
e 14 65
e 14 66
e 14 67
e 14 68
e 14 70
e 14 74
e 14 76
e 14 77
e 14 79
e 14 87
e 14 89
e 14 93
e 14 94
e 14 95
e 14 97
e 14 98
e 15 16
e 15 22
e 15 23
e 15 26
e 15 28
e 15 32
e 15 33
e 15 34
e 15 39
e 15 40
e 15 41
e 15 43
e 15 45
e 15 48
e 15 49
e 15 56
e 15 57
e 15 60
e 15 63
e 15 64
e 15 65
e 15 66
e 15 70
e 15 71
e 15 73
e 15 74
e 15 78
e 15 80
e 15 82
e 15 84
e 15 85
e 15 88
e 15 89
e 15 91
e 15 93
e 15 94
e 15 95
e 15 98
e 15 100
e 16 22
e 16 23
e 16 24
e 16 25
e 16 29
e 16 31
e 16 36
e 16 38
e 16 39
e 16 40
e 16 42
e 16 43
e 16 44
e 16 46
e 16 50
e 16 53
e 16 54
e 16 55
e 16 56
e 16 59
e 16 61
e 16 65
e 16 66
e 16 69
e 16 72
e 16 75
e 16 77
e 16 78
e 16 85
e 16 86
e 16 87
e 16 89
e 16 90
e 16 92
e 16 94
e 16 95
e 16 100
e 17 20
e 17 22
e 17 23
e 17 25
e 17 26
e 17 29
e 17 34
e 17 36
e 17 39
e 17 41
e 17 42
e 17 43
e 17 50
e 17 51
e 17 52
e 17 54
e 17 55
e 17 67
e 17 68
e 17 69
e 17 71
e 17 75
e 17 78
e 17 80
e 17 81
e 17 83
e 17 88
e 17 90
e 17 99
e 18 19
e 18 25
e 18 33
e 18 37
e 18 41
e 18 47
e 18 51
e 18 52
e 18 54
e 18 56
e 18 58
e 18 59
e 18 61
e 18 63
e 18 64
e 18 66
e 18 69
e 18 70
e 18 76
e 18 77
e 18 79
e 18 80
e 18 81
e 18 84
e 18 88
e 18 90
e 18 91
e 18 94
e 18 97
e 19 23
e 19 24
e 19 26
e 19 27
e 19 28
e 19 31
e 19 33
e 19 36
e 19 38
e 19 45
e 19 51
e 19 56
e 19 57
e 19 59
e 19 60
e 19 61
e 19 62
e 19 68
e 19 71
e 19 76
e 19 77
e 19 78
e 19 80
e 19 81
e 19 82
e 19 87
e 19 88
e 19 92
e 19 96
e 19 99
e 20 23
e 20 28
e 20 29
e 20 32
e 20 33
e 20 36
e 20 39
e 20 44
e 20 47
e 20 49
e 20 51
e 20 53
e 20 56
e 20 58
e 20 60
e 20 61
e 20 63
e 20 65
e 20 67
e 20 68
e 20 72
e 20 73
e 20 81
e 20 84
e 20 87
e 20 88
e 20 89
e 20 90
e 20 91
e 20 92
e 20 94
e 20 97
e 20 100
e 21 25
e 21 31
e 21 35
e 21 36
e 21 41
e 21 42
e 21 43
e 21 44
e 21 45
e 21 47
e 21 52
e 21 55
e 21 59
e 21 61
e 21 62
e 21 65
e 21 66
e 21 68
e 21 71
e 21 72
e 21 74
e 21 76
e 21 78
e 21 80
e 21 87
e 21 89
e 21 92
e 21 93
e 21 95
e 21 96
e 22 23
e 22 24
e 22 25
e 22 27
e 22 31
e 22 32
e 22 33
e 22 34
e 22 39
e 22 40
e 22 41
e 22 44
e 22 47
e 22 49
e 22 55
e 22 56
e 22 62
e 22 63
e 22 76
e 22 82
e 22 83
e 22 85
e 22 86
e 22 88
e 22 89
e 22 93
e 22 94
e 22 96
e 22 97
e 22 99
e 22 100
e 23 24
e 23 27
e 23 29
e 23 30
e 23 32
e 23 33
e 23 34
e 23 40
e 23 42
e 23 45
e 23 47
e 23 48
e 23 51
e 23 52
e 23 53
e 23 55
e 23 58
e 23 59
e 23 61
e 23 62
e 23 64
e 23 66
e 23 67
e 23 68
e 23 71
e 23 73
e 23 77
e 23 78
e 23 83
e 23 84
e 23 86
e 23 87
e 23 88
e 23 96
e 23 98
e 23 99
e 24 26
e 24 29
e 24 30
e 24 35
e 24 37
e 24 39
e 24 40
e 24 43
e 24 46
e 24 47
e 24 54
e 24 56
e 24 59
e 24 61
e 24 62
e 24 64
e 24 65
e 24 66
e 24 68
e 24 70
e 24 73
e 24 80
e 24 83
e 24 85
e 24 90
e 24 91
e 24 96
e 24 99
e 24 100
e 25 30
e 25 31
e 25 33
e 25 35
e 25 36
e 25 37
e 25 38
e 25 41
e 25 51
e 25 57
e 25 62
e 25 69
e 25 73
e 25 77
e 25 79
e 25 81
e 25 86
e 25 88
e 25 90
e 25 93
e 25 94
e 25 98
e 25 100
e 26 27
e 26 28
e 26 29
e 26 30
e 26 31
e 26 32
e 26 41
e 26 42
e 26 44
e 26 45
e 26 47
e 26 48
e 26 50
e 26 54
e 26 55
e 26 56
e 26 59
e 26 60
e 26 61
e 26 63
e 26 64
e 26 65
e 26 73
e 26 76
e 26 77
e 26 80
e 26 82
e 26 83
e 26 84
e 26 88
e 26 89
e 26 90
e 26 93
e 26 94
e 26 96
e 26 100
e 27 28
e 27 29
e 27 34
e 27 36
e 27 44
e 27 45
e 27 48
e 27 49
e 27 53
e 27 59
e 27 60
e 27 64
e 27 66
e 27 70
e 27 74
e 27 79
e 27 81
e 27 82
e 27 83
e 27 84
e 27 85
e 27 90
e 27 91
e 27 92
e 27 95
e 27 96
e 27 97
e 27 98
e 27 99
e 27 100
e 28 29
e 28 30
e 28 31
e 28 32
e 28 33
e 28 34
e 28 40
e 28 43
e 28 44
e 28 48
e 28 58
e 28 61
e 28 62
e 28 64
e 28 66
e 28 69
e 28 71
e 28 74
e 28 75
e 28 76
e 28 77
e 28 78
e 28 82
e 28 84
e 28 85
e 28 88
e 28 91
e 28 92
e 28 97
e 28 98
e 28 100
e 29 33
e 29 39
e 29 40
e 29 44
e 29 45
e 29 46
e 29 49
e 29 50
e 29 51
e 29 52
e 29 54
e 29 55
e 29 56
e 29 59
e 29 60
e 29 66
e 29 68
e 29 74
e 29 77
e 29 78
e 29 81
e 29 83
e 29 85
e 29 89
e 29 91
e 29 92
e 29 93
e 29 98
e 30 33
e 30 37
e 30 40
e 30 48
e 30 50
e 30 53
e 30 54
e 30 55
e 30 58
e 30 60
e 30 61
e 30 64
e 30 66
e 30 67
e 30 70
e 30 73
e 30 74
e 30 84
e 30 89
e 30 93
e 30 94
e 30 97
e 30 99
e 31 34
e 31 35
e 31 40
e 31 43
e 31 44
e 31 45
e 31 47
e 31 53
e 31 55
e 31 56
e 31 63
e 31 65
e 31 69
e 31 71
e 31 74
e 31 77
e 31 79
e 31 80
e 31 81
e 31 86
e 31 90
e 31 92
e 31 93
e 31 99
e 32 33
e 32 34
e 32 36
e 32 37
e 32 38
e 32 42
e 32 44
e 32 49
e 32 55
e 32 56
e 32 57
e 32 58
e 32 60
e 32 63
e 32 67
e 32 69
e 32 70
e 32 72
e 32 74
e 32 75
e 32 77
e 32 81
e 32 82
e 32 83
e 32 88
e 32 100
e 33 37
e 33 39
e 33 41
e 33 43
e 33 44
e 33 45
e 33 48
e 33 49
e 33 52
e 33 53
e 33 54
e 33 57
e 33 58
e 33 59
e 33 60
e 33 62
e 33 63
e 33 65
e 33 66
e 33 67
e 33 68
e 33 69
e 33 70
e 33 72
e 33 73
e 33 75
e 33 76
e 33 79
e 33 84
e 33 85
e 33 86
e 33 87
e 33 90
e 33 92
e 33 94
e 33 96
e 33 97
e 33 98
e 33 100
e 34 41
e 34 43
e 34 47
e 34 49
e 34 51
e 34 53
e 34 56
e 34 62
e 34 63
e 34 65
e 34 67
e 34 70
e 34 73
e 34 78
e 34 87
e 34 88
e 34 89
e 34 90
e 34 91
e 34 93
e 34 96
e 34 97
e 34 99
e 35 37
e 35 44
e 35 45
e 35 46
e 35 49
e 35 53
e 35 56
e 35 60
e 35 61
e 35 62
e 35 63
e 35 66
e 35 69
e 35 71
e 35 74
e 35 77
e 35 78
e 35 79
e 35 82
e 35 83
e 36 37
e 36 38
e 36 42
e 36 44
e 36 47
e 36 50
e 36 53
e 36 55
e 36 56
e 36 57
e 36 60
e 36 61
e 36 62
e 36 63
e 36 65
e 36 66
e 36 73
e 36 75
e 36 77
e 36 79
e 36 80
e 36 84
e 36 85
e 36 87
e 36 89
e 36 91
e 36 93
e 36 94
e 36 95
e 36 96
e 36 99
e 37 43
e 37 44
e 37 46
e 37 50
e 37 51
e 37 53
e 37 55
e 37 63
e 37 64
e 37 68
e 37 69
e 37 70
e 37 71
e 37 76
e 37 78
e 37 87
e 37 91
e 37 98
e 38 40
e 38 41
e 38 42
e 38 45
e 38 46
e 38 47
e 38 49
e 38 56
e 38 59
e 38 66
e 38 67
e 38 68
e 38 75
e 38 77
e 38 78
e 38 81
e 38 82
e 38 83
e 38 84
e 38 85
e 38 92
e 38 94
e 38 95
e 38 98
e 39 43
e 39 46
e 39 48
e 39 49
e 39 50
e 39 51
e 39 52
e 39 54
e 39 55
e 39 56
e 39 59
e 39 60
e 39 62
e 39 64
e 39 70
e 39 71
e 39 72
e 39 74
e 39 79
e 39 80
e 39 81
e 39 82
e 39 83
e 39 86
e 39 91
e 39 93
e 39 96
e 39 99
e 40 41
e 40 43
e 40 44
e 40 45
e 40 50
e 40 52
e 40 54
e 40 56
e 40 57
e 40 58
e 40 62
e 40 63
e 40 64
e 40 67
e 40 68
e 40 69
e 40 72
e 40 76
e 40 78
e 40 87
e 40 93
e 40 94
e 40 96
e 40 97
e 40 98
e 40 99
e 41 45
e 41 46
e 41 47
e 41 51
e 41 56
e 41 59
e 41 60
e 41 61
e 41 63
e 41 64
e 41 66
e 41 69
e 41 70
e 41 75
e 41 76
e 41 77
e 41 78
e 41 79
e 41 83
e 41 84
e 41 89
e 41 90
e 41 93
e 41 98
e 42 46
e 42 48
e 42 50
e 42 52
e 42 53
e 42 56
e 42 65
e 42 75
e 42 76
e 42 78
e 42 82
e 42 83
e 42 84
e 42 88
e 42 93
e 42 96
e 42 97
e 42 99
e 43 44
e 43 46
e 43 48
e 43 49
e 43 50
e 43 54
e 43 58
e 43 59
e 43 63
e 43 65
e 43 66
e 43 67
e 43 69
e 43 74
e 43 77
e 43 78
e 43 82
e 43 83
e 43 85
e 43 89
e 43 90
e 43 91
e 43 93
e 43 94
e 44 48
e 44 49
e 44 50
e 44 54
e 44 55
e 44 56
e 44 59
e 44 60
e 44 61
e 44 62
e 44 63
e 44 64
e 44 66
e 44 67
e 44 69
e 44 70
e 44 74
e 44 77
e 44 80
e 44 81
e 44 82
e 44 87
e 44 88
e 44 92
e 44 93
e 44 95
e 44 100
e 45 47
e 45 51
e 45 52
e 45 54
e 45 55
e 45 56
e 45 60
e 45 62
e 45 65
e 45 66
e 45 67
e 45 70
e 45 72
e 45 75
e 45 78
e 45 80
e 45 82
e 45 90
e 45 93
e 45 95
e 45 97
e 45 100
e 46 49
e 46 51
e 46 55
e 46 56
e 46 57
e 46 62
e 46 67
e 46 70
e 46 71
e 46 72
e 46 79
e 46 82
e 46 83
e 46 84
e 46 89
e 46 90
e 46 98
e 46 99
e 47 50
e 47 52
e 47 53
e 47 58
e 47 59
e 47 63
e 47 67
e 47 70
e 47 73
e 47 74
e 47 78
e 47 80
e 47 81
e 47 83
e 47 84
e 47 85
e 47 86
e 47 88
e 47 89
e 47 90
e 47 92
e 47 93
e 47 97
e 47 99
e 48 49
e 48 51
e 48 53
e 48 54
e 48 56
e 48 62
e 48 64
e 48 65
e 48 66
e 48 68
e 48 71
e 48 74
e 48 77
e 48 78
e 48 80
e 48 84
e 48 88
e 48 89
e 48 93
e 48 96
e 48 99
e 48 100
e 49 51
e 49 54
e 49 56
e 49 57
e 49 59
e 49 61
e 49 67
e 49 71
e 49 73
e 49 76
e 49 79
e 49 80
e 49 83
e 49 84
e 49 85
e 49 89
e 49 90
e 49 91
e 49 95
e 49 96
e 49 98
e 49 99
e 50 53
e 50 55
e 50 56
e 50 60
e 50 62
e 50 64
e 50 68
e 50 69
e 50 70
e 50 71
e 50 72
e 50 74
e 50 76
e 50 79
e 50 83
e 50 84
e 50 86
e 50 88
e 50 89
e 50 91
e 50 92
e 50 94
e 50 98
e 50 100
e 51 52
e 51 57
e 51 60
e 51 63
e 51 65
e 51 79
e 51 82
e 51 83
e 51 85
e 51 86
e 51 89
e 51 91
e 51 96
e 51 97
e 51 100
e 52 53
e 52 55
e 52 58
e 52 60
e 52 63
e 52 66
e 52 70
e 52 71
e 52 75
e 52 78
e 52 79
e 52 81
e 52 84
e 52 85
e 52 88
e 52 91
e 52 93
e 52 97
e 52 98
e 52 99
e 53 54
e 53 56
e 53 61
e 53 62
e 53 65
e 53 66
e 53 67
e 53 70
e 53 72
e 53 74
e 53 75
e 53 76
e 53 80
e 53 86
e 53 87
e 53 88
e 53 91
e 53 92
e 53 98
e 53 100
e 54 57
e 54 63
e 54 65
e 54 75
e 54 80
e 54 85
e 54 87
e 54 88
e 54 91
e 54 93
e 54 97
e 54 98
e 55 63
e 55 65
e 55 66
e 55 67
e 55 68
e 55 70
e 55 76
e 55 77
e 55 79
e 55 81
e 55 83
e 55 86
e 55 87
e 55 92
e 55 93
e 55 94
e 55 95
e 55 96
e 55 97
e 55 98
e 55 100
e 56 57
e 56 59
e 56 60
e 56 64
e 56 66
e 56 70
e 56 71
e 56 72
e 56 75
e 56 81
e 56 83
e 56 84
e 56 87
e 56 93
e 56 96
e 57 60
e 57 61
e 57 68
e 57 69
e 57 71
e 57 73
e 57 76
e 57 77
e 57 79
e 57 83
e 57 86
e 57 89
e 57 98
e 57 100
e 58 59
e 58 60
e 58 61
e 58 63
e 58 65
e 58 67
e 58 69
e 58 70
e 58 75
e 58 78
e 58 80
e 58 83
e 58 86
e 58 87
e 58 89
e 58 93
e 58 100
e 59 63
e 59 64
e 59 68
e 59 70
e 59 73
e 59 75
e 59 77
e 59 78
e 59 82
e 59 83
e 59 85
e 59 86
e 59 95
e 59 97
e 59 98
e 59 100
e 60 61
e 60 62
e 60 71
e 60 72
e 60 74
e 60 75
e 60 82
e 60 84
e 60 86
e 60 87
e 60 88
e 60 89
e 60 90
e 60 93
e 60 94
e 60 95
e 60 99
e 60 100
e 61 65
e 61 68
e 61 71
e 61 72
e 61 73
e 61 75
e 61 76
e 61 77
e 61 78
e 61 79
e 61 85
e 61 86
e 61 87
e 61 88
e 61 89
e 61 90
e 61 91
e 61 94
e 61 96
e 62 67
e 62 69
e 62 70
e 62 72
e 62 74
e 62 78
e 62 80
e 62 83
e 62 87
e 62 88
e 62 92
e 62 95
e 62 96
e 62 99
e 63 64
e 63 67
e 63 68
e 63 70
e 63 72
e 63 76
e 63 81
e 63 82
e 63 87
e 63 89
e 63 90
e 63 92
e 63 93
e 63 95
e 63 96
e 63 98
e 64 68
e 64 70
e 64 74
e 64 76
e 64 78
e 64 79
e 64 80
e 64 81
e 64 84
e 64 86
e 64 88
e 64 89
e 64 90
e 64 95
e 64 100
e 65 67
e 65 70
e 65 72
e 65 73
e 65 77
e 65 78
e 65 81
e 65 82
e 65 83
e 65 84
e 65 86
e 65 90
e 65 91
e 65 92
e 65 96
e 65 99
e 66 68
e 66 74
e 66 79
e 66 81
e 66 83
e 66 88
e 66 89
e 66 90
e 66 91
e 66 93
e 66 94
e 66 97
e 66 98
e 66 100
e 67 69
e 67 70
e 67 71
e 67 75
e 67 76
e 67 77
e 67 78
e 67 81
e 67 82
e 67 86
e 67 91
e 67 97
e 67 98
e 68 69
e 68 70
e 68 74
e 68 76
e 68 77
e 68 80
e 68 81
e 68 85
e 68 86
e 68 88
e 68 91
e 68 92
e 68 93
e 68 94
e 68 97
e 68 98
e 69 70
e 69 72
e 69 75
e 69 79
e 69 80
e 69 82
e 69 83
e 69 87
e 69 90
e 69 92
e 69 94
e 69 96
e 69 98
e 70 71
e 70 72
e 70 75
e 70 76
e 70 77
e 70 78
e 70 79
e 70 82
e 70 83
e 70 84
e 70 85
e 70 95
e 70 97
e 70 98
e 70 99
e 71 72
e 71 73
e 71 75
e 71 78
e 71 81
e 71 85
e 71 89
e 71 90
e 71 91
e 71 93
e 71 98
e 71 99
e 71 100
e 72 74
e 72 76
e 72 79
e 72 84
e 72 85
e 72 86
e 72 87
e 72 92
e 72 93
e 72 94
e 72 96
e 73 74
e 73 75
e 73 76
e 73 85
e 73 87
e 73 94
e 73 97
e 73 98
e 74 78
e 74 79
e 74 95
e 74 96
e 74 97
e 74 100
e 75 78
e 75 79
e 75 80
e 75 86
e 75 87
e 75 92
e 75 94
e 75 95
e 75 97
e 76 77
e 76 78
e 76 79
e 76 80
e 76 82
e 76 83
e 76 84
e 76 85
e 76 88
e 76 91
e 76 93
e 76 96
e 76 100
e 77 79
e 77 82
e 77 85
e 77 86
e 77 90
e 77 94
e 77 95
e 77 97
e 78 79
e 78 83
e 78 84
e 78 87
e 78 88
e 78 89
e 78 90
e 78 93
e 78 97
e 79 81
e 79 88
e 79 90
e 79 92
e 79 95
e 79 96
e 79 100
e 80 83
e 80 89
e 80 90
e 80 91
e 80 97
e 80 98
e 80 100
e 81 83
e 81 84
e 81 93
e 81 94
e 81 95
e 81 97
e 81 99
e 82 83
e 82 85
e 82 91
e 82 92
e 82 95
e 82 96
e 82 99
e 83 89
e 83 94
e 83 97
e 83 99
e 84 86
e 84 88
e 84 89
e 84 91
e 84 93
e 84 94
e 84 96
e 84 99
e 84 100
e 85 86
e 85 87
e 85 89
e 85 90
e 85 92
e 85 93
e 85 98
e 85 99
e 85 100
e 86 87
e 86 88
e 86 89
e 86 90
e 86 92
e 86 97
e 87 93
e 87 99
e 88 89
e 88 98
e 89 94
e 89 99
e 90 91
e 90 94
e 90 95
e 91 94
e 91 98
e 91 99
e 91 100
e 92 95
e 92 99
e 93 95
e 93 96
e 93 98
e 94 97
e 94 98
e 94 100
e 95 98
e 97 98
e 97 100
e 98 99
e 98 100
e 99 100
